%chk=5G27_MTN_refine.chk
%mem=60GB
%nprocshared=12
#p gen 6d pbe1pbe

start preoptimized

0 2
 C                                                    -11.76300000   58.59400000    0.60000000
 C                                                    -10.73300000   59.38200000    1.35400000
 C                                                    -10.95300000   60.69800000    1.30700000
 C                                                    -10.10300000   61.71500000    1.95700000
 C                                                    -12.18600000   61.03100000    0.49700000
 C                                                    -11.89100000   61.70200000   -0.84900000
 C                                                    -13.23200000   61.81000000    1.27200000
 C                                                    -12.49700000   57.56600000    1.46900000
 C                                                    -11.18000000   57.96200000   -0.66100000
 N                                                    -12.65800000   59.67800000    0.14200000
 O                                                    -13.63000000   59.50000000   -0.64100000
 H                                                    -10.02400000   58.97800000    1.80000000
 H                                                     -9.75000000   61.36700000    2.79000000
 H                                                    -10.62500000   62.51000000    2.14800000
 H                                                    -11.41500000   62.53800000   -0.72300000
 H                                                    -12.71200000   61.89500000   -1.32800000
 H                                                    -11.34500000   61.12900000   -1.41000000
 H                                                    -12.85700000   62.66300000    1.54100000
 H                                                    -13.49000000   61.30200000    2.05600000
 H                                                    -14.00500000   61.95500000    0.70400000
 H                                                    -12.73600000   57.94900000    2.32700000
 H                                                    -13.31100000   57.26700000    1.03500000
 H                                                    -11.93900000   56.79000000    1.63000000
 H                                                    -10.74900000   58.64900000   -1.19300000
 H                                                    -10.53100000   57.28700000   -0.41000000
 H                                                    -11.89500000   57.55300000   -1.17400000
 H                                                     -9.25425557   62.05242485    1.39961560

@/home/malgo/Basis_sets/n07d_pbe0.gbs

