%chk=6N87_MTN_refine.chk
%mem=60GB
%nprocshared=12
#p gen 6d pbe1pbe

start preoptimized

0 2
 C                                                    82.23300000   11.38000000    6.07000000
 C                                                    83.16100000   11.17500000    4.93400000
 C                                                    83.06100000    9.94400000    4.46200000
 C                                                    83.96500000    9.48800000    3.39500000
 C                                                    82.21400000    8.99200000    5.21700000
 C                                                    83.04800000    7.89300000    5.95800000
 C                                                    81.37200000    8.39400000    4.12300000
 C                                                    81.37100000   12.64200000    5.75800000
 C                                                    83.10400000   11.52700000    7.31900000
 N                                                    81.64200000   10.00200000    6.12600000
 O                                                    80.67800000    9.69300000    6.85100000
 H                                                    83.72900000   11.83700000    4.61100000
 H                                                    83.99400000    8.53500000    3.21600000
 H                                                    83.92700000    9.96100000    2.55000000
 H                                                    82.46900000    7.29500000    6.45600000
 H                                                    83.55600000    7.35900000    5.32700000
 H                                                    83.67300000    8.29400000    6.58200000
 H                                                    80.70600000    7.80900000    4.51700000
 H                                                    80.93400000    9.10700000    3.63300000
 H                                                    81.94200000    7.88600000    3.52400000
 H                                                    81.87100000   13.45400000    5.93900000
 H                                                    80.56900000   12.65500000    6.30400000
 H                                                    81.10200000   12.65400000    4.82600000
 H                                                    83.64500000   10.72900000    7.42700000
 H                                                    82.53300000   11.64200000    8.09500000
 H                                                    83.67900000   12.30100000    7.21800000
 H                                                    84.69686905    9.84620134    4.08851243

@/home/malgo/Basis_sets/n07d_pbe0.gbs

